50
21011

243 402
290 976
606 30
196 97
514 726
664 803
964 810
40 923
884 233
183 656
599 552
796 396
243 624
276 218
237 427
608 176
140 314
169 606
270 193
79 777
352 466
738 149
392 593
584 524
273 273
498 590
67 99
68 262
977 807
1000 761
3 18
738 375
198 65
815 418
447 339
361 961
911 158
10 486
697 162
176 362
300 411
237 667
605 158
403 940
971 541
455 775
633 439
992 506
828 991
383 108
